
Gurobi 8.0.0 (linux64, Python) logging started Sun May 20 12:21:21 2018

Academic license - for non-commercial use only

Gurobi 8.0.0 (linux64, Python) logging started Sun May 20 12:27:18 2018

Academic license - for non-commercial use only

Gurobi 8.0.0 (linux64, Python) logging started Sun May 20 12:44:00 2018

Academic license - for non-commercial use only
Optimize a model with 501 rows, 1267 columns and 2530 nonzeros
Coefficient statistics:
  Matrix range     [1e+00, 1e+00]
  Objective range  [1e-01, 2e+04]
  Bounds range     [0e+00, 0e+00]
  RHS range        [1e+00, 1e+00]
Presolve removed 365 rows and 730 columns
Presolve time: 0.00s
Presolved: 136 rows, 537 columns, 1074 nonzeros

Iteration    Objective       Primal Inf.    Dual Inf.      Time
       0    0.0000000e+00   2.000000e+00   0.000000e+00      0s
       4    2.3264095e+03   0.000000e+00   0.000000e+00      0s

Solved in 4 iterations and 0.00 seconds
Optimal objective  2.326409549e+03

Gurobi 8.0.0 (linux64, Python) logging started Sun May 20 12:47:11 2018

Academic license - for non-commercial use only
Optimize a model with 501 rows, 1267 columns and 2530 nonzeros
Coefficient statistics:
  Matrix range     [1e+00, 1e+00]
  Objective range  [1e-01, 2e+04]
  Bounds range     [0e+00, 0e+00]
  RHS range        [1e+00, 1e+00]
Presolve removed 365 rows and 730 columns
Presolve time: 0.00s
Presolved: 136 rows, 537 columns, 1074 nonzeros

Iteration    Objective       Primal Inf.    Dual Inf.      Time
       0    0.0000000e+00   2.000000e+00   0.000000e+00      0s
       4    2.3264095e+03   0.000000e+00   0.000000e+00      0s

Solved in 4 iterations and 0.00 seconds
Optimal objective  2.326409549e+03

Gurobi 8.0.0 (linux64, Python) logging started Sun May 20 12:47:20 2018

Academic license - for non-commercial use only
Optimize a model with 501 rows, 1267 columns and 2530 nonzeros
Coefficient statistics:
  Matrix range     [1e+00, 1e+00]
  Objective range  [1e-01, 2e+04]
  Bounds range     [0e+00, 0e+00]
  RHS range        [1e+00, 1e+00]
Presolve removed 365 rows and 730 columns
Presolve time: 0.00s
Presolved: 136 rows, 537 columns, 1074 nonzeros

Iteration    Objective       Primal Inf.    Dual Inf.      Time
       0    0.0000000e+00   2.000000e+00   0.000000e+00      0s
       4    2.3264095e+03   0.000000e+00   0.000000e+00      0s

Solved in 4 iterations and 0.00 seconds
Optimal objective  2.326409549e+03

Gurobi 8.0.0 (linux64, Python) logging started Sun May 20 12:48:23 2018

Academic license - for non-commercial use only
Optimize a model with 501 rows, 1267 columns and 2530 nonzeros
Coefficient statistics:
  Matrix range     [1e+00, 1e+00]
  Objective range  [1e-01, 2e+04]
  Bounds range     [0e+00, 0e+00]
  RHS range        [1e+00, 1e+00]
Presolve removed 365 rows and 730 columns
Presolve time: 0.00s
Presolved: 136 rows, 537 columns, 1074 nonzeros

Iteration    Objective       Primal Inf.    Dual Inf.      Time
       0    0.0000000e+00   2.000000e+00   0.000000e+00      0s
       4    2.3264095e+03   0.000000e+00   0.000000e+00      0s

Solved in 4 iterations and 0.00 seconds
Optimal objective  2.326409549e+03

Gurobi 8.0.0 (linux64, Python) logging started Sun May 20 12:50:55 2018

Academic license - for non-commercial use only
Optimize a model with 501 rows, 1267 columns and 2530 nonzeros
Coefficient statistics:
  Matrix range     [1e+00, 1e+00]
  Objective range  [1e-01, 2e+04]
  Bounds range     [0e+00, 0e+00]
  RHS range        [1e+00, 1e+00]
Presolve removed 365 rows and 730 columns
Presolve time: 0.00s
Presolved: 136 rows, 537 columns, 1074 nonzeros

Iteration    Objective       Primal Inf.    Dual Inf.      Time
       0    0.0000000e+00   2.000000e+00   0.000000e+00      0s
       4    2.3264095e+03   0.000000e+00   0.000000e+00      0s

Solved in 4 iterations and 0.00 seconds
Optimal objective  2.326409549e+03

Gurobi 8.0.0 (linux64, Python) logging started Sun May 20 12:56:33 2018

Academic license - for non-commercial use only
Optimize a model with 501 rows, 1267 columns and 2530 nonzeros
Coefficient statistics:
  Matrix range     [1e+00, 1e+00]
  Objective range  [1e-01, 2e+04]
  Bounds range     [0e+00, 0e+00]
  RHS range        [1e+00, 1e+00]
Presolve removed 365 rows and 730 columns
Presolve time: 0.00s
Presolved: 136 rows, 537 columns, 1074 nonzeros

Iteration    Objective       Primal Inf.    Dual Inf.      Time
       0    0.0000000e+00   2.000000e+00   0.000000e+00      0s
       4    2.3264095e+03   0.000000e+00   0.000000e+00      0s

Solved in 4 iterations and 0.00 seconds
Optimal objective  2.326409549e+03

Gurobi 8.0.0 (linux64, Python) logging started Sun May 20 13:02:26 2018

Academic license - for non-commercial use only
Optimize a model with 501 rows, 1267 columns and 2530 nonzeros
Coefficient statistics:
  Matrix range     [1e+00, 1e+00]
  Objective range  [1e-01, 2e+04]
  Bounds range     [0e+00, 0e+00]
  RHS range        [1e+00, 1e+00]
Presolve removed 365 rows and 730 columns
Presolve time: 0.00s
Presolved: 136 rows, 537 columns, 1074 nonzeros

Iteration    Objective       Primal Inf.    Dual Inf.      Time
       0    0.0000000e+00   2.000000e+00   0.000000e+00      0s
       4    2.3264095e+03   0.000000e+00   0.000000e+00      0s

Solved in 4 iterations and 0.00 seconds
Optimal objective  2.326409549e+03

Gurobi 8.0.0 (linux64, Python) logging started Sun May 20 13:13:39 2018

Academic license - for non-commercial use only
Optimize a model with 501 rows, 1267 columns and 2530 nonzeros
Coefficient statistics:
  Matrix range     [1e+00, 1e+00]
  Objective range  [1e-01, 2e+04]
  Bounds range     [0e+00, 0e+00]
  RHS range        [1e+00, 1e+00]
Presolve removed 365 rows and 730 columns
Presolve time: 0.00s
Presolved: 136 rows, 537 columns, 1074 nonzeros

Iteration    Objective       Primal Inf.    Dual Inf.      Time
       0    0.0000000e+00   2.000000e+00   0.000000e+00      0s
       4    2.3264095e+03   0.000000e+00   0.000000e+00      0s

Solved in 4 iterations and 0.00 seconds
Optimal objective  2.326409549e+03

Gurobi 8.0.0 (linux64, Python) logging started Sun May 20 13:16:24 2018

Academic license - for non-commercial use only
Optimize a model with 501 rows, 1267 columns and 2530 nonzeros
Coefficient statistics:
  Matrix range     [1e+00, 1e+00]
  Objective range  [1e-01, 2e+04]
  Bounds range     [0e+00, 0e+00]
  RHS range        [1e+00, 1e+00]
Presolve removed 365 rows and 730 columns
Presolve time: 0.00s
Presolved: 136 rows, 537 columns, 1074 nonzeros

Iteration    Objective       Primal Inf.    Dual Inf.      Time
       0    0.0000000e+00   2.000000e+00   0.000000e+00      0s
      17    1.2133809e+04   0.000000e+00   0.000000e+00      0s

Solved in 17 iterations and 0.00 seconds
Optimal objective  1.213380947e+04

Gurobi 8.0.0 (linux64, Python) logging started Sun May 20 13:16:31 2018

Academic license - for non-commercial use only
Optimize a model with 501 rows, 1267 columns and 2530 nonzeros
Coefficient statistics:
  Matrix range     [1e+00, 1e+00]
  Objective range  [1e-01, 2e+04]
  Bounds range     [0e+00, 0e+00]
  RHS range        [1e+00, 1e+00]
Presolve removed 365 rows and 730 columns
Presolve time: 0.00s
Presolved: 136 rows, 537 columns, 1074 nonzeros

Iteration    Objective       Primal Inf.    Dual Inf.      Time
       0    0.0000000e+00   2.000000e+00   0.000000e+00      0s
      17    1.2133809e+04   0.000000e+00   0.000000e+00      0s

Solved in 17 iterations and 0.00 seconds
Optimal objective  1.213380947e+04

Gurobi 8.0.0 (linux64, Python) logging started Sun May 20 13:24:26 2018

Academic license - for non-commercial use only

Gurobi 8.0.0 (linux64, Python) logging started Sun May 20 13:25:31 2018

Academic license - for non-commercial use only

Gurobi 8.0.0 (linux64, Python) logging started Sun May 20 13:25:34 2018

Academic license - for non-commercial use only

Gurobi 8.0.0 (linux64, Python) logging started Sun May 20 13:30:26 2018

Academic license - for non-commercial use only
Optimize a model with 501 rows, 1267 columns and 2530 nonzeros
Coefficient statistics:
  Matrix range     [1e+00, 1e+00]
  Objective range  [1e-01, 2e+04]
  Bounds range     [0e+00, 0e+00]
  RHS range        [1e+00, 1e+00]
Presolve removed 365 rows and 730 columns
Presolve time: 0.00s
Presolved: 136 rows, 537 columns, 1074 nonzeros

Iteration    Objective       Primal Inf.    Dual Inf.      Time
       0    0.0000000e+00   2.000000e+00   0.000000e+00      0s
      17    1.2133809e+04   0.000000e+00   0.000000e+00      0s

Solved in 17 iterations and 0.00 seconds
Optimal objective  1.213380947e+04

Gurobi 8.0.0 (linux64, Python) logging started Sun May 20 13:30:39 2018

Academic license - for non-commercial use only
Optimize a model with 501 rows, 1267 columns and 2530 nonzeros
Coefficient statistics:
  Matrix range     [1e+00, 1e+00]
  Objective range  [1e-01, 2e+04]
  Bounds range     [0e+00, 0e+00]
  RHS range        [1e+00, 1e+00]
Presolve removed 365 rows and 730 columns
Presolve time: 0.00s
Presolved: 136 rows, 537 columns, 1074 nonzeros

Iteration    Objective       Primal Inf.    Dual Inf.      Time
       0    0.0000000e+00   2.000000e+00   0.000000e+00      0s
      17    1.2133809e+04   0.000000e+00   0.000000e+00      0s

Solved in 17 iterations and 0.00 seconds
Optimal objective  1.213380947e+04

Gurobi 8.0.0 (linux64, Python) logging started Sun May 20 13:30:51 2018

Academic license - for non-commercial use only
Optimize a model with 501 rows, 1267 columns and 2530 nonzeros
Coefficient statistics:
  Matrix range     [1e+00, 1e+00]
  Objective range  [1e-01, 2e+04]
  Bounds range     [0e+00, 0e+00]
  RHS range        [1e+00, 1e+00]
Presolve removed 365 rows and 730 columns
Presolve time: 0.00s
Presolved: 136 rows, 537 columns, 1074 nonzeros

Iteration    Objective       Primal Inf.    Dual Inf.      Time
       0    0.0000000e+00   2.000000e+00   0.000000e+00      0s
      17    1.2133809e+04   0.000000e+00   0.000000e+00      0s

Solved in 17 iterations and 0.00 seconds
Optimal objective  1.213380947e+04

Gurobi 8.0.0 (linux64, Python) logging started Sun May 20 13:35:55 2018

Academic license - for non-commercial use only
Optimize a model with 501 rows, 1267 columns and 2530 nonzeros
Coefficient statistics:
  Matrix range     [1e+00, 1e+00]
  Objective range  [1e-01, 2e+04]
  Bounds range     [0e+00, 0e+00]
  RHS range        [1e+00, 1e+00]
Presolve removed 365 rows and 730 columns
Presolve time: 0.00s
Presolved: 136 rows, 537 columns, 1074 nonzeros

Iteration    Objective       Primal Inf.    Dual Inf.      Time
       0    0.0000000e+00   2.000000e+00   0.000000e+00      0s
      17    1.2133809e+04   0.000000e+00   0.000000e+00      0s

Solved in 17 iterations and 0.00 seconds
Optimal objective  1.213380947e+04

Gurobi 8.0.0 (linux64, Python) logging started Sun May 20 13:52:12 2018

Academic license - for non-commercial use only
Optimize a model with 501 rows, 1267 columns and 2530 nonzeros
Coefficient statistics:
  Matrix range     [1e+00, 1e+00]
  Objective range  [1e-01, 2e+04]
  Bounds range     [0e+00, 0e+00]
  RHS range        [1e+00, 1e+00]
Presolve removed 365 rows and 730 columns
Presolve time: 0.00s
Presolved: 136 rows, 537 columns, 1074 nonzeros

Iteration    Objective       Primal Inf.    Dual Inf.      Time
       0    0.0000000e+00   2.000000e+00   0.000000e+00      0s
      17    1.2133809e+04   0.000000e+00   0.000000e+00      0s

Solved in 17 iterations and 0.00 seconds
Optimal objective  1.213380947e+04

Gurobi 8.0.0 (linux64, Python) logging started Sun May 20 13:52:16 2018

Academic license - for non-commercial use only
Optimize a model with 501 rows, 1267 columns and 2530 nonzeros
Coefficient statistics:
  Matrix range     [1e+00, 1e+00]
  Objective range  [1e-01, 2e+04]
  Bounds range     [0e+00, 0e+00]
  RHS range        [1e+00, 1e+00]
Presolve removed 365 rows and 730 columns
Presolve time: 0.00s
Presolved: 136 rows, 537 columns, 1074 nonzeros

Iteration    Objective       Primal Inf.    Dual Inf.      Time
       0    0.0000000e+00   2.000000e+00   0.000000e+00      0s
      17    1.2133809e+04   0.000000e+00   0.000000e+00      0s

Solved in 17 iterations and 0.00 seconds
Optimal objective  1.213380947e+04

Gurobi 8.0.0 (linux64, Python) logging started Sun May 20 13:52:26 2018

Academic license - for non-commercial use only
Optimize a model with 501 rows, 1267 columns and 2530 nonzeros
Coefficient statistics:
  Matrix range     [1e+00, 1e+00]
  Objective range  [1e-01, 2e+04]
  Bounds range     [0e+00, 0e+00]
  RHS range        [1e+00, 1e+00]
Presolve removed 365 rows and 730 columns
Presolve time: 0.00s
Presolved: 136 rows, 537 columns, 1074 nonzeros

Iteration    Objective       Primal Inf.    Dual Inf.      Time
       0    0.0000000e+00   2.000000e+00   0.000000e+00      0s
      17    1.2133809e+04   0.000000e+00   0.000000e+00      0s

Solved in 17 iterations and 0.00 seconds
Optimal objective  1.213380947e+04

Gurobi 8.0.0 (linux64, Python) logging started Sun May 20 13:52:42 2018

Academic license - for non-commercial use only
Optimize a model with 501 rows, 1267 columns and 2530 nonzeros
Coefficient statistics:
  Matrix range     [1e+00, 1e+00]
  Objective range  [1e-01, 2e+04]
  Bounds range     [0e+00, 0e+00]
  RHS range        [1e+00, 1e+00]
Presolve removed 365 rows and 730 columns
Presolve time: 0.00s
Presolved: 136 rows, 537 columns, 1074 nonzeros

Iteration    Objective       Primal Inf.    Dual Inf.      Time
       0    0.0000000e+00   2.000000e+00   0.000000e+00      0s
      17    1.2133809e+04   0.000000e+00   0.000000e+00      0s

Solved in 17 iterations and 0.00 seconds
Optimal objective  1.213380947e+04

Gurobi 8.0.0 (linux64, Python) logging started Sun May 20 13:52:45 2018

Academic license - for non-commercial use only
Optimize a model with 501 rows, 1267 columns and 2530 nonzeros
Coefficient statistics:
  Matrix range     [1e+00, 1e+00]
  Objective range  [1e-01, 2e+04]
  Bounds range     [0e+00, 0e+00]
  RHS range        [1e+00, 1e+00]
Presolve removed 365 rows and 730 columns
Presolve time: 0.00s
Presolved: 136 rows, 537 columns, 1074 nonzeros

Iteration    Objective       Primal Inf.    Dual Inf.      Time
       0    0.0000000e+00   2.000000e+00   0.000000e+00      0s
      17    1.2133809e+04   0.000000e+00   0.000000e+00      0s

Solved in 17 iterations and 0.00 seconds
Optimal objective  1.213380947e+04

Gurobi 8.0.0 (linux64, Python) logging started Sun May 20 13:52:48 2018

Academic license - for non-commercial use only
Optimize a model with 501 rows, 1267 columns and 2530 nonzeros
Coefficient statistics:
  Matrix range     [1e+00, 1e+00]
  Objective range  [1e-01, 2e+04]
  Bounds range     [0e+00, 0e+00]
  RHS range        [1e+00, 1e+00]
Presolve removed 365 rows and 730 columns
Presolve time: 0.00s
Presolved: 136 rows, 537 columns, 1074 nonzeros

Iteration    Objective       Primal Inf.    Dual Inf.      Time
       0    0.0000000e+00   2.000000e+00   0.000000e+00      0s
      17    1.2133809e+04   0.000000e+00   0.000000e+00      0s

Solved in 17 iterations and 0.00 seconds
Optimal objective  1.213380947e+04

Gurobi 8.0.0 (linux64, Python) logging started Sun May 20 13:52:56 2018

Academic license - for non-commercial use only
Optimize a model with 501 rows, 1267 columns and 2530 nonzeros
Coefficient statistics:
  Matrix range     [1e+00, 1e+00]
  Objective range  [1e-01, 2e+04]
  Bounds range     [0e+00, 0e+00]
  RHS range        [1e+00, 1e+00]
Presolve removed 365 rows and 730 columns
Presolve time: 0.00s
Presolved: 136 rows, 537 columns, 1074 nonzeros

Iteration    Objective       Primal Inf.    Dual Inf.      Time
       0    0.0000000e+00   2.000000e+00   0.000000e+00      0s
      17    1.2133809e+04   0.000000e+00   0.000000e+00      0s

Solved in 17 iterations and 0.00 seconds
Optimal objective  1.213380947e+04

Gurobi 8.0.0 (linux64, Python) logging started Sun May 20 13:53:25 2018

Academic license - for non-commercial use only
Optimize a model with 501 rows, 1267 columns and 2530 nonzeros
Coefficient statistics:
  Matrix range     [1e+00, 1e+00]
  Objective range  [1e-01, 2e+04]
  Bounds range     [0e+00, 0e+00]
  RHS range        [1e+00, 1e+00]
Presolve removed 365 rows and 730 columns
Presolve time: 0.00s
Presolved: 136 rows, 537 columns, 1074 nonzeros

Iteration    Objective       Primal Inf.    Dual Inf.      Time
       0    0.0000000e+00   2.000000e+00   0.000000e+00      0s
      17    1.2133809e+04   0.000000e+00   0.000000e+00      0s

Solved in 17 iterations and 0.00 seconds
Optimal objective  1.213380947e+04

Gurobi 8.0.0 (linux64, Python) logging started Sun May 20 13:53:41 2018

Academic license - for non-commercial use only
Optimize a model with 501 rows, 1267 columns and 2530 nonzeros
Coefficient statistics:
  Matrix range     [1e+00, 1e+00]
  Objective range  [1e-01, 2e+04]
  Bounds range     [0e+00, 0e+00]
  RHS range        [1e+00, 1e+00]
Presolve removed 365 rows and 730 columns
Presolve time: 0.00s
Presolved: 136 rows, 537 columns, 1074 nonzeros

Iteration    Objective       Primal Inf.    Dual Inf.      Time
       0    0.0000000e+00   2.000000e+00   0.000000e+00      0s
      17    1.2133809e+04   0.000000e+00   0.000000e+00      0s

Solved in 17 iterations and 0.00 seconds
Optimal objective  1.213380947e+04

Gurobi 8.0.0 (linux64, Python) logging started Sun May 20 13:53:49 2018

Academic license - for non-commercial use only
Optimize a model with 501 rows, 1267 columns and 2530 nonzeros
Coefficient statistics:
  Matrix range     [1e+00, 1e+00]
  Objective range  [1e-01, 2e+04]
  Bounds range     [0e+00, 0e+00]
  RHS range        [1e+00, 1e+00]
Presolve removed 365 rows and 730 columns
Presolve time: 0.00s
Presolved: 136 rows, 537 columns, 1074 nonzeros

Iteration    Objective       Primal Inf.    Dual Inf.      Time
       0    0.0000000e+00   2.000000e+00   0.000000e+00      0s
      17    1.2133809e+04   0.000000e+00   0.000000e+00      0s

Solved in 17 iterations and 0.00 seconds
Optimal objective  1.213380947e+04

Gurobi 8.0.0 (linux64, Python) logging started Sun May 20 13:54:02 2018

Academic license - for non-commercial use only
Optimize a model with 501 rows, 1267 columns and 2530 nonzeros
Coefficient statistics:
  Matrix range     [1e+00, 1e+00]
  Objective range  [1e-01, 2e+04]
  Bounds range     [0e+00, 0e+00]
  RHS range        [1e+00, 1e+00]
Presolve removed 365 rows and 730 columns
Presolve time: 0.00s
Presolved: 136 rows, 537 columns, 1074 nonzeros

Iteration    Objective       Primal Inf.    Dual Inf.      Time
       0    0.0000000e+00   2.000000e+00   0.000000e+00      0s
      17    1.2133809e+04   0.000000e+00   0.000000e+00      0s

Solved in 17 iterations and 0.00 seconds
Optimal objective  1.213380947e+04

Gurobi 8.0.0 (linux64, Python) logging started Sun May 20 13:54:13 2018

Academic license - for non-commercial use only
Optimize a model with 501 rows, 1267 columns and 2530 nonzeros
Coefficient statistics:
  Matrix range     [1e+00, 1e+00]
  Objective range  [1e-01, 2e+04]
  Bounds range     [0e+00, 0e+00]
  RHS range        [1e+00, 1e+00]
Presolve removed 365 rows and 730 columns
Presolve time: 0.00s
Presolved: 136 rows, 537 columns, 1074 nonzeros

Iteration    Objective       Primal Inf.    Dual Inf.      Time
       0    0.0000000e+00   2.000000e+00   0.000000e+00      0s
      17    1.2133809e+04   0.000000e+00   0.000000e+00      0s

Solved in 17 iterations and 0.00 seconds
Optimal objective  1.213380947e+04

Gurobi 8.0.0 (linux64, Python) logging started Sun May 20 13:54:24 2018

Academic license - for non-commercial use only
Optimize a model with 501 rows, 1267 columns and 2530 nonzeros
Coefficient statistics:
  Matrix range     [1e+00, 1e+00]
  Objective range  [1e-01, 2e+04]
  Bounds range     [0e+00, 0e+00]
  RHS range        [1e+00, 1e+00]
Presolve removed 365 rows and 730 columns
Presolve time: 0.00s
Presolved: 136 rows, 537 columns, 1074 nonzeros

Iteration    Objective       Primal Inf.    Dual Inf.      Time
       0    0.0000000e+00   2.000000e+00   0.000000e+00      0s
      17    1.2133809e+04   0.000000e+00   0.000000e+00      0s

Solved in 17 iterations and 0.00 seconds
Optimal objective  1.213380947e+04

Gurobi 8.0.0 (linux64, Python) logging started Sun May 20 13:54:33 2018

Academic license - for non-commercial use only
Optimize a model with 501 rows, 1267 columns and 2530 nonzeros
Coefficient statistics:
  Matrix range     [1e+00, 1e+00]
  Objective range  [1e-01, 2e+04]
  Bounds range     [0e+00, 0e+00]
  RHS range        [1e+00, 1e+00]
Presolve removed 365 rows and 730 columns
Presolve time: 0.00s
Presolved: 136 rows, 537 columns, 1074 nonzeros

Iteration    Objective       Primal Inf.    Dual Inf.      Time
       0    0.0000000e+00   2.000000e+00   0.000000e+00      0s
      17    1.2133809e+04   0.000000e+00   0.000000e+00      0s

Solved in 17 iterations and 0.00 seconds
Optimal objective  1.213380947e+04

Gurobi 8.0.0 (linux64, Python) logging started Sun May 20 13:54:41 2018

Academic license - for non-commercial use only
Optimize a model with 501 rows, 1267 columns and 2530 nonzeros
Coefficient statistics:
  Matrix range     [1e+00, 1e+00]
  Objective range  [1e-01, 2e+04]
  Bounds range     [0e+00, 0e+00]
  RHS range        [1e+00, 1e+00]
Presolve removed 365 rows and 730 columns
Presolve time: 0.00s
Presolved: 136 rows, 537 columns, 1074 nonzeros

Iteration    Objective       Primal Inf.    Dual Inf.      Time
       0    0.0000000e+00   2.000000e+00   0.000000e+00      0s
      17    1.2133809e+04   0.000000e+00   0.000000e+00      0s

Solved in 17 iterations and 0.00 seconds
Optimal objective  1.213380947e+04

Gurobi 8.0.0 (linux64, Python) logging started Sun May 20 13:54:49 2018

Academic license - for non-commercial use only
Optimize a model with 501 rows, 1267 columns and 2530 nonzeros
Coefficient statistics:
  Matrix range     [1e+00, 1e+00]
  Objective range  [1e-01, 2e+04]
  Bounds range     [0e+00, 0e+00]
  RHS range        [1e+00, 1e+00]
Presolve removed 365 rows and 730 columns
Presolve time: 0.00s
Presolved: 136 rows, 537 columns, 1074 nonzeros

Iteration    Objective       Primal Inf.    Dual Inf.      Time
       0    0.0000000e+00   2.000000e+00   0.000000e+00      0s
      17    1.2133809e+04   0.000000e+00   0.000000e+00      0s

Solved in 17 iterations and 0.00 seconds
Optimal objective  1.213380947e+04

Gurobi 8.0.0 (linux64, Python) logging started Sun May 20 13:55:01 2018

Academic license - for non-commercial use only
Optimize a model with 501 rows, 1267 columns and 2530 nonzeros
Coefficient statistics:
  Matrix range     [1e+00, 1e+00]
  Objective range  [1e-01, 2e+04]
  Bounds range     [0e+00, 0e+00]
  RHS range        [1e+00, 1e+00]
Presolve removed 365 rows and 730 columns
Presolve time: 0.00s
Presolved: 136 rows, 537 columns, 1074 nonzeros

Iteration    Objective       Primal Inf.    Dual Inf.      Time
       0    0.0000000e+00   2.000000e+00   0.000000e+00      0s
      17    1.2133809e+04   0.000000e+00   0.000000e+00      0s

Solved in 17 iterations and 0.00 seconds
Optimal objective  1.213380947e+04

Gurobi 8.0.0 (linux64, Python) logging started Sun May 20 13:55:18 2018

Academic license - for non-commercial use only
Optimize a model with 501 rows, 1267 columns and 2530 nonzeros
Coefficient statistics:
  Matrix range     [1e+00, 1e+00]
  Objective range  [1e-01, 2e+04]
  Bounds range     [0e+00, 0e+00]
  RHS range        [1e+00, 1e+00]
Presolve removed 365 rows and 730 columns
Presolve time: 0.00s
Presolved: 136 rows, 537 columns, 1074 nonzeros

Iteration    Objective       Primal Inf.    Dual Inf.      Time
       0    0.0000000e+00   2.000000e+00   0.000000e+00      0s
      17    1.2133809e+04   0.000000e+00   0.000000e+00      0s

Solved in 17 iterations and 0.00 seconds
Optimal objective  1.213380947e+04

Gurobi 8.0.0 (linux64, Python) logging started Sun May 20 13:56:57 2018

Academic license - for non-commercial use only
Optimize a model with 501 rows, 1267 columns and 2530 nonzeros
Coefficient statistics:
  Matrix range     [1e+00, 1e+00]
  Objective range  [1e-01, 2e+04]
  Bounds range     [0e+00, 0e+00]
  RHS range        [1e+00, 1e+00]
Presolve removed 365 rows and 730 columns
Presolve time: 0.00s
Presolved: 136 rows, 537 columns, 1074 nonzeros

Iteration    Objective       Primal Inf.    Dual Inf.      Time
       0    0.0000000e+00   2.000000e+00   0.000000e+00      0s
      17    1.2133809e+04   0.000000e+00   0.000000e+00      0s

Solved in 17 iterations and 0.00 seconds
Optimal objective  1.213380947e+04

Gurobi 8.0.0 (linux64, Python) logging started Sun May 20 13:59:13 2018

Academic license - for non-commercial use only
Optimize a model with 501 rows, 1267 columns and 2530 nonzeros
Coefficient statistics:
  Matrix range     [1e+00, 1e+00]
  Objective range  [1e-01, 2e+04]
  Bounds range     [0e+00, 0e+00]
  RHS range        [1e+00, 1e+00]
Presolve removed 365 rows and 730 columns
Presolve time: 0.00s
Presolved: 136 rows, 537 columns, 1074 nonzeros

Iteration    Objective       Primal Inf.    Dual Inf.      Time
       0    0.0000000e+00   2.000000e+00   0.000000e+00      0s
      17    1.2133809e+04   0.000000e+00   0.000000e+00      0s

Solved in 17 iterations and 0.00 seconds
Optimal objective  1.213380947e+04

Gurobi 8.0.0 (linux64, Python) logging started Sun May 20 14:00:31 2018

Academic license - for non-commercial use only
Optimize a model with 501 rows, 1267 columns and 2530 nonzeros
Coefficient statistics:
  Matrix range     [1e+00, 1e+00]
  Objective range  [1e-01, 2e+04]
  Bounds range     [0e+00, 0e+00]
  RHS range        [1e+00, 1e+00]
Presolve removed 365 rows and 730 columns
Presolve time: 0.00s
Presolved: 136 rows, 537 columns, 1074 nonzeros

Iteration    Objective       Primal Inf.    Dual Inf.      Time
       0    0.0000000e+00   2.000000e+00   0.000000e+00      0s
      17    1.2133809e+04   0.000000e+00   0.000000e+00      0s

Solved in 17 iterations and 0.00 seconds
Optimal objective  1.213380947e+04

Gurobi 8.0.0 (linux64, Python) logging started Sun May 20 14:00:35 2018

Academic license - for non-commercial use only
Optimize a model with 501 rows, 1267 columns and 2530 nonzeros
Coefficient statistics:
  Matrix range     [1e+00, 1e+00]
  Objective range  [1e-01, 2e+04]
  Bounds range     [0e+00, 0e+00]
  RHS range        [1e+00, 1e+00]
Presolve removed 365 rows and 730 columns
Presolve time: 0.00s
Presolved: 136 rows, 537 columns, 1074 nonzeros

Iteration    Objective       Primal Inf.    Dual Inf.      Time
       0    0.0000000e+00   2.000000e+00   0.000000e+00      0s
      17    1.2133809e+04   0.000000e+00   0.000000e+00      0s

Solved in 17 iterations and 0.00 seconds
Optimal objective  1.213380947e+04

Gurobi 8.0.0 (linux64, Python) logging started Sun May 20 14:02:31 2018

Academic license - for non-commercial use only
Optimize a model with 501 rows, 1267 columns and 2530 nonzeros
Coefficient statistics:
  Matrix range     [1e+00, 1e+00]
  Objective range  [1e-01, 2e+04]
  Bounds range     [0e+00, 0e+00]
  RHS range        [1e+00, 1e+00]
Presolve removed 365 rows and 730 columns
Presolve time: 0.00s
Presolved: 136 rows, 537 columns, 1074 nonzeros

Iteration    Objective       Primal Inf.    Dual Inf.      Time
       0    0.0000000e+00   2.000000e+00   0.000000e+00      0s
      17    1.2133809e+04   0.000000e+00   0.000000e+00      0s

Solved in 17 iterations and 0.00 seconds
Optimal objective  1.213380947e+04

Gurobi 8.0.0 (linux64, Python) logging started Sun May 20 14:03:07 2018

Academic license - for non-commercial use only
Optimize a model with 501 rows, 1267 columns and 2530 nonzeros
Coefficient statistics:
  Matrix range     [1e+00, 1e+00]
  Objective range  [1e-01, 2e+04]
  Bounds range     [0e+00, 0e+00]
  RHS range        [1e+00, 1e+00]
Presolve removed 365 rows and 730 columns
Presolve time: 0.00s
Presolved: 136 rows, 537 columns, 1074 nonzeros

Iteration    Objective       Primal Inf.    Dual Inf.      Time
       0    0.0000000e+00   2.000000e+00   0.000000e+00      0s
      17    1.2133809e+04   0.000000e+00   0.000000e+00      0s

Solved in 17 iterations and 0.00 seconds
Optimal objective  1.213380947e+04

Gurobi 8.0.0 (linux64, Python) logging started Sun May 20 14:06:54 2018

Academic license - for non-commercial use only
Optimize a model with 501 rows, 1267 columns and 2530 nonzeros
Coefficient statistics:
  Matrix range     [1e+00, 1e+00]
  Objective range  [1e-01, 2e+04]
  Bounds range     [0e+00, 0e+00]
  RHS range        [1e+00, 1e+00]
Presolve removed 365 rows and 730 columns
Presolve time: 0.00s
Presolved: 136 rows, 537 columns, 1074 nonzeros

Iteration    Objective       Primal Inf.    Dual Inf.      Time
       0    0.0000000e+00   2.000000e+00   0.000000e+00      0s
      17    1.2133809e+04   0.000000e+00   0.000000e+00      0s

Solved in 17 iterations and 0.00 seconds
Optimal objective  1.213380947e+04

Gurobi 8.0.0 (linux64, Python) logging started Sun May 20 14:09:12 2018

Academic license - for non-commercial use only
Optimize a model with 501 rows, 1267 columns and 2530 nonzeros
Coefficient statistics:
  Matrix range     [1e+00, 1e+00]
  Objective range  [1e-01, 2e+04]
  Bounds range     [0e+00, 0e+00]
  RHS range        [1e+00, 1e+00]
Presolve removed 365 rows and 730 columns
Presolve time: 0.00s
Presolved: 136 rows, 537 columns, 1074 nonzeros

Iteration    Objective       Primal Inf.    Dual Inf.      Time
       0    0.0000000e+00   2.000000e+00   0.000000e+00      0s
      17    1.2133809e+04   0.000000e+00   0.000000e+00      0s

Solved in 17 iterations and 0.00 seconds
Optimal objective  1.213380947e+04

Gurobi 8.0.0 (linux64, Python) logging started Sun May 20 14:14:06 2018

Academic license - for non-commercial use only
Optimize a model with 501 rows, 1267 columns and 2530 nonzeros
Coefficient statistics:
  Matrix range     [1e+00, 1e+00]
  Objective range  [1e-01, 2e+04]
  Bounds range     [0e+00, 0e+00]
  RHS range        [1e+00, 1e+00]
Presolve removed 365 rows and 730 columns
Presolve time: 0.00s
Presolved: 136 rows, 537 columns, 1074 nonzeros

Iteration    Objective       Primal Inf.    Dual Inf.      Time
       0    0.0000000e+00   2.000000e+00   0.000000e+00      0s
      17    1.2133809e+04   0.000000e+00   0.000000e+00      0s

Solved in 17 iterations and 0.00 seconds
Optimal objective  1.213380947e+04

Gurobi 8.0.0 (linux64, Python) logging started Sun May 20 14:14:59 2018

Academic license - for non-commercial use only
Optimize a model with 501 rows, 1267 columns and 2530 nonzeros
Coefficient statistics:
  Matrix range     [1e+00, 1e+00]
  Objective range  [1e-01, 2e+04]
  Bounds range     [0e+00, 0e+00]
  RHS range        [1e+00, 1e+00]
Presolve removed 365 rows and 730 columns
Presolve time: 0.00s
Presolved: 136 rows, 537 columns, 1074 nonzeros

Iteration    Objective       Primal Inf.    Dual Inf.      Time
       0    0.0000000e+00   2.000000e+00   0.000000e+00      0s
      17    1.2133809e+04   0.000000e+00   0.000000e+00      0s

Solved in 17 iterations and 0.00 seconds
Optimal objective  1.213380947e+04

Gurobi 8.0.0 (linux64, Python) logging started Sun May 20 14:15:16 2018

Academic license - for non-commercial use only
Optimize a model with 501 rows, 1267 columns and 2530 nonzeros
Coefficient statistics:
  Matrix range     [1e+00, 1e+00]
  Objective range  [1e-01, 2e+04]
  Bounds range     [0e+00, 0e+00]
  RHS range        [1e+00, 1e+00]
Presolve removed 365 rows and 730 columns
Presolve time: 0.00s
Presolved: 136 rows, 537 columns, 1074 nonzeros

Iteration    Objective       Primal Inf.    Dual Inf.      Time
       0    0.0000000e+00   2.000000e+00   0.000000e+00      0s
      17    1.2133809e+04   0.000000e+00   0.000000e+00      0s

Solved in 17 iterations and 0.00 seconds
Optimal objective  1.213380947e+04

Gurobi 8.0.0 (linux64, Python) logging started Sun May 20 14:19:26 2018

Academic license - for non-commercial use only
Optimize a model with 501 rows, 1267 columns and 2530 nonzeros
Coefficient statistics:
  Matrix range     [1e+00, 1e+00]
  Objective range  [1e-01, 2e+04]
  Bounds range     [0e+00, 0e+00]
  RHS range        [1e+00, 1e+00]
Presolve removed 365 rows and 730 columns
Presolve time: 0.00s
Presolved: 136 rows, 537 columns, 1074 nonzeros

Iteration    Objective       Primal Inf.    Dual Inf.      Time
       0    0.0000000e+00   2.000000e+00   0.000000e+00      0s
      17    1.2133809e+04   0.000000e+00   0.000000e+00      0s

Solved in 17 iterations and 0.00 seconds
Optimal objective  1.213380947e+04

Gurobi 8.0.0 (linux64, Python) logging started Sun May 20 14:24:36 2018

Academic license - for non-commercial use only
Optimize a model with 501 rows, 1267 columns and 2530 nonzeros
Coefficient statistics:
  Matrix range     [1e+00, 1e+00]
  Objective range  [1e-01, 2e+04]
  Bounds range     [0e+00, 0e+00]
  RHS range        [1e+00, 1e+00]
Presolve removed 365 rows and 730 columns
Presolve time: 0.00s
Presolved: 136 rows, 537 columns, 1074 nonzeros

Iteration    Objective       Primal Inf.    Dual Inf.      Time
       0    0.0000000e+00   2.000000e+00   0.000000e+00      0s
      17    1.2133809e+04   0.000000e+00   0.000000e+00      0s

Solved in 17 iterations and 0.00 seconds
Optimal objective  1.213380947e+04

Gurobi 8.0.0 (linux64, Python) logging started Sun May 20 14:24:54 2018

Academic license - for non-commercial use only
Optimize a model with 501 rows, 1267 columns and 2530 nonzeros
Coefficient statistics:
  Matrix range     [1e+00, 1e+00]
  Objective range  [1e-01, 2e+04]
  Bounds range     [0e+00, 0e+00]
  RHS range        [1e+00, 1e+00]
Presolve removed 365 rows and 730 columns
Presolve time: 0.00s
Presolved: 136 rows, 537 columns, 1074 nonzeros

Iteration    Objective       Primal Inf.    Dual Inf.      Time
       0    0.0000000e+00   2.000000e+00   0.000000e+00      0s
      17    1.2133809e+04   0.000000e+00   0.000000e+00      0s

Solved in 17 iterations and 0.00 seconds
Optimal objective  1.213380947e+04

Gurobi 8.0.0 (linux64, Python) logging started Sun May 20 14:25:16 2018

Academic license - for non-commercial use only
Optimize a model with 501 rows, 1267 columns and 2530 nonzeros
Coefficient statistics:
  Matrix range     [1e+00, 1e+00]
  Objective range  [1e-01, 2e+04]
  Bounds range     [0e+00, 0e+00]
  RHS range        [1e+00, 1e+00]
Presolve removed 365 rows and 730 columns
Presolve time: 0.00s
Presolved: 136 rows, 537 columns, 1074 nonzeros

Iteration    Objective       Primal Inf.    Dual Inf.      Time
       0    0.0000000e+00   2.000000e+00   0.000000e+00      0s
      17    1.2133809e+04   0.000000e+00   0.000000e+00      0s

Solved in 17 iterations and 0.00 seconds
Optimal objective  1.213380947e+04
